3 
4  57 
5  13 28 43 58 
6  10 16 22 27 31 37 42 47 52 57 
7  02 07 12 17 22 27 32 37 42 47 52 57 
8  02 07 12 17 22 27 32 37 42 47 52 57 
9  02 07 12 18 23 28 35 43 50 58 
10  05 13 21 28 36 43 51 58 
11  06 13 21 28 36 43 51 58 
12  06 13 21 28 36 43 51 58 
13  08 15 23 30 38 45 53 
14  00 08 15 23 30 36 40 45 50 55 
15  00 05 10 15 20 25 30 35 40 45 50 55 
16  00 05 10 15 20 25 30 35 40 45 50 55 
17  00 05 10 15 20 25 30 35 40 45 50 55 
18  00 05 10 17 24 32 38 44 49 55 
19  00 03 08 15 22 30 38 45 53 
20  00 07 15 23 35 50 
21  05 20 35 50 
22  05 20 35 50 
23  05 19 
0 
